p tw 44 48
1 2
2 13
3 4
3 23
4 5
5 6
6 7
7 8
8 9
9 10
10 11
10 16
11 12
12 14
13 24
14 15
14 16
15 38
16 17
17 18
18 19
19 20
20 21
21 22
22 24
23 25
24 35
25 26
26 27
27 28
28 29
28 33
29 30
30 31
31 32
32 38
33 34
34 36
35 40
36 37
36 24
37 38
38 39
40 41
41 42
42 43
43 44
44 3
